data/simple-data/hej.fzn
predicate fzn_all_different_int(array [int] of var int: x);
predicate fzn_count_eq(array [int] of var int: x,var int: y,var int: c);
array [1..7] of int: X_INTRODUCED_39_ = [1,1,1,1,1,1,1];
array [1..22] of int: X_INTRODUCED_43_ = [1,1,1,1,1,1,1,1,-1,-1,-1,-1,-1,-1,-1,-1,-1,-1,-1,-1,-1,-1];
var 1..8: X_INTRODUCED_17_;
var 1..8: X_INTRODUCED_18_;
var 1..8: X_INTRODUCED_19_;
var 1..8: X_INTRODUCED_20_;
var 1..8: X_INTRODUCED_21_;
var 1..8: X_INTRODUCED_22_;
var 1..8: X_INTRODUCED_23_;
var 1..8: X_INTRODUCED_24_;
var 1..8: X_INTRODUCED_25_;
var 1..8: X_INTRODUCED_26_;
var 1..8: X_INTRODUCED_27_;
var 1..8: X_INTRODUCED_28_;
var 1..8: X_INTRODUCED_29_;
var 1..8: X_INTRODUCED_30_;
var 1..8: X_INTRODUCED_31_;
var 1..8: X_INTRODUCED_32_;
var 1..8: X_INTRODUCED_33_;
var 1..8: X_INTRODUCED_34_;
var 1..8: X_INTRODUCED_35_;
var 1..8: X_INTRODUCED_36_;
var 1..8: X_INTRODUCED_37_;
var -42..105: obj:: output_var:: is_defined_var;
array [1..7] of var int: x:: output_array([1..7]) = [X_INTRODUCED_17_,X_INTRODUCED_18_,X_INTRODUCED_19_,X_INTRODUCED_20_,X_INTRODUCED_21_,X_INTRODUCED_22_,X_INTRODUCED_23_];
array [1..7] of var int: y:: output_array([1..7]) = [X_INTRODUCED_24_,X_INTRODUCED_25_,X_INTRODUCED_26_,X_INTRODUCED_27_,X_INTRODUCED_28_,X_INTRODUCED_29_,X_INTRODUCED_30_];
array [1..7] of var int: z:: output_array([1..7]) = [X_INTRODUCED_31_,X_INTRODUCED_32_,X_INTRODUCED_33_,X_INTRODUCED_34_,X_INTRODUCED_35_,X_INTRODUCED_36_,X_INTRODUCED_37_];
array [1..22] of var int: X_INTRODUCED_42_ ::var_is_introduced  = [obj,X_INTRODUCED_24_,X_INTRODUCED_25_,X_INTRODUCED_26_,X_INTRODUCED_27_,X_INTRODUCED_28_,X_INTRODUCED_29_,X_INTRODUCED_30_,X_INTRODUCED_17_,X_INTRODUCED_18_,X_INTRODUCED_19_,X_INTRODUCED_20_,X_INTRODUCED_21_,X_INTRODUCED_22_,X_INTRODUCED_23_,X_INTRODUCED_31_,X_INTRODUCED_32_,X_INTRODUCED_33_,X_INTRODUCED_34_,X_INTRODUCED_35_,X_INTRODUCED_36_,X_INTRODUCED_37_];
constraint fzn_all_different_int(x);
constraint int_lin_eq(X_INTRODUCED_39_,[X_INTRODUCED_24_,X_INTRODUCED_25_,X_INTRODUCED_26_,X_INTRODUCED_27_,X_INTRODUCED_28_,X_INTRODUCED_29_,X_INTRODUCED_30_],7);
constraint fzn_count_eq(z,5,3);
constraint int_lin_eq(X_INTRODUCED_43_,X_INTRODUCED_42_,0):: defines_var(obj);
solve  minimize obj;
